\* UABC_Social_Event_Problem *\
Maximize
OBJ: People_AJ_Quiambao + People_Ahmad_Arif_Danial_Bin__Ahmad_Nasrul
 + People_Batrisyia__Zin + People_Brandan_Tan + People_Cheryl_Chu
 + People_Chloe_Chow + People_Daniel_Nhim_ + People_Dylan__Ly
 + People_Eakhong_Lim + People_Eden_Au + People_Ethan_Qian + People_Ethan_Teoh
 + People_Eugene_Wong + People_Felicity__Liu + People_Franck_Chen
 + People_Gabriel_Chapman + People_HAN_ZE_CHA + People_Harikesh_Shanker
 + People_Harry_Li + People_Henri_Chemla + People_Henry_Chap
 + People_Ivan_Wong + People_Jasper_Low + People_Jayden_Williams
 + People_Jayvin_Ang + People_Jenelyn__Frane + People_Jiaxin_Liu
 + People_Joseph_Chan + People_Josh_Nguyen + People_Joyce_Kurniawan_
 + People_Ken_Lee + People_Liann_Mah + People_Louis_Se + People_Mark_Chan
 + People_Matthew_Tiv + People_Miffy_Chiu + People_Ming_Ray_Goy
 + People_Muhammad_Adam_Ikhwan_Mohamaf_Nasir + People_Nicholas_Ngu
 + People_Nigel_Lian + People_Patrick_Setu + People_Pei_Yang_Loo
 + People_Phawat__Saengsiripongpun_ + People_Philip_George
 + People_Pritvir_Singh + People_Rashil_Nand + People_Richard_Chen
 + People_Rohan_Anthony + People_Safwan_Shukri + People_Sofia_Salazar
 + People_Sokheng_Khou + People_Vian_Chang + People_Wallace_Wu
 + People_Xun_Gene_Ong + People_Yi_Sun + People_Yuru_Huang + People_Yvonne_Lo
 + People_ZI_JEN_LEE + People_Zoe_Quifors_ + People_soknang_vorn
Subject To
_C1: People_AJ_Quiambao + People_Ahmad_Arif_Danial_Bin__Ahmad_Nasrul
 + People_Batrisyia__Zin + People_Brandan_Tan + People_Cheryl_Chu
 + People_Chloe_Chow + People_Daniel_Nhim_ + People_Dylan__Ly
 + People_Eakhong_Lim + People_Eden_Au + People_Ethan_Qian + People_Ethan_Teoh
 + People_Eugene_Wong + People_Felicity__Liu + People_Franck_Chen
 + People_Gabriel_Chapman + People_HAN_ZE_CHA + People_Harikesh_Shanker
 + People_Harry_Li + People_Henri_Chemla + People_Henry_Chap
 + People_Ivan_Wong + People_Jasper_Low + People_Jayden_Williams
 + People_Jayvin_Ang + People_Jenelyn__Frane + People_Jiaxin_Liu
 + People_Joseph_Chan + People_Josh_Nguyen + People_Joyce_Kurniawan_
 + People_Ken_Lee + People_Liann_Mah + People_Louis_Se + People_Mark_Chan
 + People_Matthew_Tiv + People_Miffy_Chiu + People_Ming_Ray_Goy
 + People_Muhammad_Adam_Ikhwan_Mohamaf_Nasir + People_Nicholas_Ngu
 + People_Nigel_Lian + People_Patrick_Setu + People_Pei_Yang_Loo
 + People_Phawat__Saengsiripongpun_ + People_Philip_George
 + People_Pritvir_Singh + People_Rashil_Nand + People_Richard_Chen
 + People_Rohan_Anthony + People_Safwan_Shukri + People_Sofia_Salazar
 + People_Sokheng_Khou + People_Vian_Chang + People_Wallace_Wu
 + People_Xun_Gene_Ong + People_Yi_Sun + People_Yuru_Huang + People_Yvonne_Lo
 + People_ZI_JEN_LEE + People_Zoe_Quifors_ + People_soknang_vorn <= 8
_C10: People_Daniel_Nhim_ = 0
_C11: People_Eakhong_Lim = 0
_C12: People_Muhammad_Adam_Ikhwan_Mohamaf_Nasir = 0
_C13: People_Dylan__Ly = 0
_C14: People_Jiaxin_Liu = 0
_C15: People_Joseph_Chan = 0
_C16: People_Josh_Nguyen = 0
_C17: People_Matthew_Tiv = 0
_C18: People_Ming_Ray_Goy = 0
_C19: People_Yuru_Huang = 0
_C2: People_Batrisyia__Zin + People_Cheryl_Chu + People_Chloe_Chow
 + People_Felicity__Liu + People_Jenelyn__Frane + People_Joyce_Kurniawan_
 + People_Liann_Mah + People_Miffy_Chiu + People_Sofia_Salazar
 + People_Yuru_Huang + People_Yvonne_Lo + People_Zoe_Quifors_ >= 2
_C20: People_Yvonne_Lo = 0
_C21: People_Jayden_Williams = 0
_C22: People_Liann_Mah = 0
_C23: People_Mark_Chan = 0
_C24: People_Rohan_Anthony = 0
_C25: People_Safwan_Shukri = 0
_C26: People_Sokheng_Khou = 0
_C27: People_Xun_Gene_Ong = 0
_C28: People_Zoe_Quifors_ = 0
_C29: People_Eden_Au = 0
_C3: People_Chloe_Chow + People_Daniel_Nhim_ + People_Eakhong_Lim
 + People_Ethan_Qian + People_Felicity__Liu + People_Franck_Chen
 + People_HAN_ZE_CHA + People_Harry_Li + People_Jayden_Williams
 + People_Jayvin_Ang + People_Jenelyn__Frane + People_Jiaxin_Liu
 + People_Joyce_Kurniawan_ + People_Louis_Se + People_Mark_Chan
 + People_Matthew_Tiv + People_Miffy_Chiu + People_Patrick_Setu
 + People_Philip_George + People_Rashil_Nand + People_Sofia_Salazar
 + People_Vian_Chang + People_Wallace_Wu + People_Yi_Sun <= 6
_C30: People_Harry_Li = 0
_C31: People_Jayvin_Ang = 0
_C32: People_Joyce_Kurniawan_ = 0
_C33: People_Louis_Se = 0
_C34: People_Miffy_Chiu = 0
_C35: People_Patrick_Setu = 0
_C36: People_ZI_JEN_LEE = 0
_C37: People_Ethan_Qian = 0
_C38: People_Ethan_Teoh = 0
_C39: People_Eugene_Wong = 0
_C4: People_Chloe_Chow + People_Daniel_Nhim_ + People_Eakhong_Lim
 + People_Ethan_Qian + People_Felicity__Liu + People_Franck_Chen
 + People_HAN_ZE_CHA + People_Harry_Li + People_Jayden_Williams
 + People_Jayvin_Ang + People_Jenelyn__Frane + People_Jiaxin_Liu
 + People_Joyce_Kurniawan_ + People_Louis_Se + People_Mark_Chan
 + People_Matthew_Tiv + People_Miffy_Chiu + People_Patrick_Setu
 + People_Philip_George + People_Rashil_Nand + People_Sofia_Salazar
 + People_Vian_Chang + People_Wallace_Wu + People_Yi_Sun >= 2
_C40: People_Felicity__Liu = 0
_C41: People_Franck_Chen = 0
_C42: People_HAN_ZE_CHA = 0
_C43: People_Jenelyn__Frane = 0
_C44: People_Philip_George = 0
_C45: People_Chloe_Chow = 0
_C46: People_Gabriel_Chapman = 0
_C47: People_Harikesh_Shanker = 0
_C48: People_Henri_Chemla = 0
_C49: People_Henry_Chap = 0
_C5: People_AJ_Quiambao = 0
_C50: People_Ivan_Wong = 0
_C51: People_Jasper_Low = 0
_C52: People_Sofia_Salazar = 0
_C53: People_Nigel_Lian = 0
_C54: People_Pei_Yang_Loo = 0
_C55: People_Phawat__Saengsiripongpun_ = 0
_C56: People_Pritvir_Singh = 0
_C57: People_Richard_Chen = 0
_C58: People_soknang_vorn = 0
_C6: People_Ahmad_Arif_Danial_Bin__Ahmad_Nasrul = 0
_C7: People_Batrisyia__Zin = 0
_C8: People_Brandan_Tan = 0
_C9: People_Cheryl_Chu = 0
Binaries
People_AJ_Quiambao
People_Ahmad_Arif_Danial_Bin__Ahmad_Nasrul
People_Batrisyia__Zin
People_Brandan_Tan
People_Cheryl_Chu
People_Chloe_Chow
People_Daniel_Nhim_
People_Dylan__Ly
People_Eakhong_Lim
People_Eden_Au
People_Ethan_Qian
People_Ethan_Teoh
People_Eugene_Wong
People_Felicity__Liu
People_Franck_Chen
People_Gabriel_Chapman
People_HAN_ZE_CHA
People_Harikesh_Shanker
People_Harry_Li
People_Henri_Chemla
People_Henry_Chap
People_Ivan_Wong
People_Jasper_Low
People_Jayden_Williams
People_Jayvin_Ang
People_Jenelyn__Frane
People_Jiaxin_Liu
People_Joseph_Chan
People_Josh_Nguyen
People_Joyce_Kurniawan_
People_Ken_Lee
People_Liann_Mah
People_Louis_Se
People_Mark_Chan
People_Matthew_Tiv
People_Miffy_Chiu
People_Ming_Ray_Goy
People_Muhammad_Adam_Ikhwan_Mohamaf_Nasir
People_Nicholas_Ngu
People_Nigel_Lian
People_Patrick_Setu
People_Pei_Yang_Loo
People_Phawat__Saengsiripongpun_
People_Philip_George
People_Pritvir_Singh
People_Rashil_Nand
People_Richard_Chen
People_Rohan_Anthony
People_Safwan_Shukri
People_Sofia_Salazar
People_Sokheng_Khou
People_Vian_Chang
People_Wallace_Wu
People_Xun_Gene_Ong
People_Yi_Sun
People_Yuru_Huang
People_Yvonne_Lo
People_ZI_JEN_LEE
People_Zoe_Quifors_
People_soknang_vorn
End
